31.38 -8.0
22.56 5.3
31.12 29.54
31.16 32.18
29.58 32.33
30.03 31.15
24.05 32.53
19.37 37.14
15.36 32.32
13.11 30.13
13.38 25.21
16.46 -3.01
12.39 -8.0
5.19 -4.02
6.41 -1.35
5.33 -0.13
6.08 1.13
6.29 2.37
12.22 -1.31
13.31 2.07
12.0 8.3
11.51 13.1
12.07 15.03
6.27 3.24
6.27 7.27
0.2 6.44
3.45 8.47
3.52 11.31
4.22 18.35
0.23 9.27
-4.16 15.17
-4.18 15.18
0.04 18.16
-5.54 22.25
0.3 25.12
-3.23 29.22
-1.57 30.04
0.19 32.25
-1.17 36.49
-8.48 13.14
-12.44 15.47
-11.4 27.28
-12.49 28.13
-15.25 28.17
-20.09 28.36
-17.5 31.03
-15.47 35.0
-19.49 34.52
-15.57 -5.42
-22.34 17.06
